59
1 0 38
2 0 4
2 1 1
3 0 38
3 1 51
3 2 37
4 0 49
4 1 8
4 2 36
4 3 47
5 0 52
5 1 60
5 2 64
5 3 30
5 4 61
6 0 63
6 1 30
6 2 49
6 3 62
6 4 7
6 5 9
7 0 7
7 1 33
7 2 60
7 3 54
7 4 26
7 5 47
7 6 23
8 0 23
8 1 55
8 2 23
8 3 63
8 4 39
8 5 27
8 6 19
8 7 52
9 0 16
9 1 62
9 2 4
9 3 51
9 4 53
9 5 19
9 6 43
9 7 1
9 8 34
10 0 31
10 1 39
10 2 58
10 3 1
10 4 31
10 5 9
10 6 20
10 7 58
10 8 35
10 9 2
11 0 54
11 1 61
11 2 19
11 3 31
11 4 22
11 5 10
11 6 25
11 7 59
11 8 43
11 9 62
11 10 55
12 0 42
12 1 14
12 2 35
12 3 56
12 4 55
12 5 32
12 6 52
12 7 36
12 8 20
12 9 3
12 10 37
12 11 43
13 0 47
13 1 29
13 2 5
13 3 48
13 4 50
13 5 2
13 6 48
13 7 55
13 8 59
13 9 42
13 10 60
13 11 56
13 12 57
14 0 51
14 1 62
14 2 20
14 3 27
14 4 35
14 5 47
14 6 48
14 7 16
14 8 30
14 9 53
14 10 34
14 11 54
14 12 18
14 13 46
15 0 26
15 1 19
15 2 61
15 3 35
15 4 8
15 5 18
15 6 34
15 7 43
15 8 5
15 9 59
15 10 57
15 11 53
15 12 51
15 13 8
15 14 13
16 0 45
16 1 42
16 2 51
16 3 52
16 4 15
16 5 4
16 6 47
16 7 46
16 8 56
16 9 19
16 10 17
16 11 4
16 12 44
16 13 20
16 14 62
16 15 9
17 0 5
17 1 39
17 2 63
17 3 54
17 4 23
17 5 47
17 6 48
17 7 51
17 8 43
17 9 62
17 10 8
17 11 7
17 12 45
17 13 36
17 14 22
17 15 61
17 16 27
18 0 17
18 1 16
18 2 26
18 3 53
18 4 9
18 5 42
18 6 49
18 7 9
18 8 58
18 9 52
18 10 49
18 11 10
18 12 20
18 13 24
18 14 20
18 15 44
18 16 17
18 17 24
19 0 31
19 1 21
19 2 43
19 3 1
19 4 5
19 5 44
19 6 21
19 7 21
19 8 55
19 9 20
19 10 11
19 11 57
19 12 23
19 13 32
19 14 55
19 15 29
19 16 58
19 17 61
19 18 28
20 0 57
20 1 7
20 2 63
20 3 38
20 4 57
20 5 1
20 6 35
20 7 38
20 8 18
20 9 53
20 10 36
20 11 9
20 12 2
20 13 40
20 14 64
20 15 46
20 16 19
20 17 49
20 18 1
20 19 57
21 0 49
21 1 44
21 2 55
21 3 57
21 4 40
21 5 19
21 6 32
21 7 30
21 8 38
21 9 23
21 10 3
21 11 48
21 12 58
21 13 30
21 14 31
21 15 25
21 16 15
21 17 22
21 18 29
21 19 45
21 20 60
22 0 50
22 1 50
22 2 11
22 3 4
22 4 29
22 5 13
22 6 46
22 7 1
22 8 16
22 9 30
22 10 38
22 11 58
22 12 61
22 13 48
22 14 40
22 15 55
22 16 31
22 17 1
22 18 32
22 19 54
22 20 62
22 21 46
23 0 5
23 1 51
23 2 15
23 3 14
23 4 51
23 5 16
23 6 47
23 7 35
23 8 2
23 9 29
23 10 54
23 11 26
23 12 52
23 13 58
23 14 1
23 15 51
23 16 62
23 17 47
23 18 17
23 19 23
23 20 1
23 21 21
23 22 9
24 0 28
24 1 22
24 2 18
24 3 56
24 4 36
24 5 4
24 6 12
24 7 27
24 8 40
24 9 5
24 10 20
24 11 56
24 12 12
24 13 4
24 14 58
24 15 5
24 16 34
24 17 16
24 18 50
24 19 40
24 20 26
24 21 28
24 22 21
24 23 36
25 0 45
25 1 38
25 2 3
25 3 25
25 4 24
25 5 51
25 6 42
25 7 25
25 8 24
25 9 30
25 10 53
25 11 4
25 12 34
25 13 25
25 14 26
25 15 26
25 16 25
25 17 32
25 18 41
25 19 25
25 20 47
25 21 48
25 22 44
25 23 37
25 24 6
26 0 40
26 1 37
26 2 4
26 3 36
26 4 50
26 5 19
26 6 64
26 7 47
26 8 3
26 9 32
26 10 23
26 11 29
26 12 62
26 13 24
26 14 51
26 15 58
26 16 21
26 17 38
26 18 45
26 19 3
26 20 19
26 21 57
26 22 60
26 23 33
26 24 35
26 25 25
27 0 41
27 1 26
27 2 3
27 3 25
27 4 5
27 5 47
27 6 37
27 7 8
27 8 54
27 9 23
27 10 18
27 11 57
27 12 21
27 13 35
27 14 25
27 15 30
27 16 34
27 17 49
27 18 29
27 19 58
27 20 55
27 21 12
27 22 30
27 23 49
27 24 56
27 25 60
27 26 34
28 0 39
28 1 50
28 2 16
28 3 18
28 4 30
28 5 52
28 6 58
28 7 10
28 8 12
28 9 39
28 10 46
28 11 62
28 12 14
28 13 53
28 14 56
28 15 37
28 16 13
28 17 60
28 18 32
28 19 51
28 20 8
28 21 18
28 22 34
28 23 26
28 24 22
28 25 59
28 26 4
28 27 9
29 0 32
29 1 36
29 2 37
29 3 10
29 4 1
29 5 56
29 6 37
29 7 5
29 8 62
29 9 51
29 10 1
29 11 51
29 12 24
29 13 42
29 14 61
29 15 33
29 16 8
29 17 27
29 18 49
29 19 55
29 20 16
29 21 9
29 22 39
29 23 59
29 24 16
29 25 24
29 26 1
29 27 41
29 28 28
30 0 33
30 1 1
30 2 44
30 3 54
30 4 63
30 5 50
30 6 4
30 7 58
30 8 46
30 9 1
30 10 63
30 11 9
30 12 39
30 13 25
30 14 32
30 15 25
30 16 42
30 17 61
30 18 17
30 19 26
30 20 3
30 21 4
30 22 15
30 23 57
30 24 32
30 25 27
30 26 21
30 27 15
30 28 26
30 29 21
31 0 3
31 1 35
31 2 51
31 3 1
31 4 60
31 5 42
31 6 2
31 7 52
31 8 18
31 9 27
31 10 51
31 11 39
31 12 9
31 13 14
31 14 52
31 15 41
31 16 6
31 17 44
31 18 23
31 19 42
31 20 60
31 21 57
31 22 29
31 23 9
31 24 17
31 25 44
31 26 16
31 27 60
31 28 53
31 29 58
31 30 15
32 0 29
32 1 63
32 2 26
32 3 62
32 4 30
32 5 40
32 6 30
32 7 45
32 8 12
32 9 25
32 10 52
32 11 60
32 12 51
32 13 12
32 14 25
32 15 55
32 16 4
32 17 6
32 18 38
32 19 16
32 20 25
32 21 25
32 22 37
32 23 11
32 24 42
32 25 14
32 26 57
32 27 46
32 28 33
32 29 62
32 30 33
32 31 19
33 0 3
33 1 44
33 2 13
33 3 43
33 4 8
33 5 50
33 6 28
33 7 30
33 8 39
33 9 64
33 10 31
33 11 53
33 12 21
33 13 42
33 14 41
33 15 36
33 16 42
33 17 3
33 18 20
33 19 60
33 20 52
33 21 59
33 22 33
33 23 63
33 24 24
33 25 36
33 26 16
33 27 47
33 28 50
33 29 27
33 30 36
33 31 8
33 32 27
34 0 44
34 1 23
34 2 23
34 3 62
34 4 9
34 5 14
34 6 44
34 7 57
34 8 5
34 9 52
34 10 18
34 11 11
34 12 28
34 13 47
34 14 31
34 15 64
34 16 3
34 17 47
34 18 40
34 19 45
34 20 52
34 21 45
34 22 13
34 23 7
34 24 25
34 25 63
34 26 63
34 27 32
34 28 23
34 29 48
34 30 43
34 31 25
34 32 13
34 33 30
35 0 49
35 1 8
35 2 36
35 3 59
35 4 2
35 5 55
35 6 24
35 7 7
35 8 47
35 9 25
35 10 6
35 11 4
35 12 21
35 13 11
35 14 3
35 15 24
35 16 26
35 17 64
35 18 40
35 19 2
35 20 10
35 21 44
35 22 48
35 23 46
35 24 33
35 25 34
35 26 54
35 27 58
35 28 47
35 29 15
35 30 35
35 31 15
35 32 16
35 33 48
35 34 30
36 0 60
36 1 54
36 2 16
36 3 56
36 4 30
36 5 41
36 6 8
36 7 21
36 8 36
36 9 23
36 10 38
36 11 21
36 12 23
36 13 50
36 14 38
36 15 43
36 16 10
36 17 40
36 18 46
36 19 7
36 20 17
36 21 3
36 22 47
36 23 20
36 24 52
36 25 25
36 26 35
36 27 34
36 28 22
36 29 16
36 30 63
36 31 8
36 32 58
36 33 40
36 34 39
36 35 8
37 0 46
37 1 56
37 2 24
37 3 24
37 4 41
37 5 51
37 6 2
37 7 54
37 8 11
37 9 62
37 10 20
37 11 24
37 12 27
37 13 9
37 14 43
37 15 47
37 16 44
37 17 26
37 18 51
37 19 59
37 20 13
37 21 24
37 22 13
37 23 56
37 24 25
37 25 44
37 26 52
37 27 14
37 28 39
37 29 24
37 30 15
37 31 47
37 32 20
37 33 5
37 34 3
37 35 28
37 36 4
38 0 16
38 1 26
38 2 44
38 3 45
38 4 26
38 5 51
38 6 45
38 7 50
38 8 33
38 9 41
38 10 9
38 11 5
38 12 61
38 13 17
38 14 62
38 15 41
38 16 32
38 17 13
38 18 41
38 19 48
38 20 20
38 21 1
38 22 9
38 23 56
38 24 64
38 25 2
38 26 43
38 27 15
38 28 12
38 29 49
38 30 64
38 31 57
38 32 6
38 33 52
38 34 30
38 35 6
38 36 4
38 37 26
39 0 37
39 1 42
39 2 8
39 3 21
39 4 27
39 5 33
39 6 64
39 7 22
39 8 19
39 9 22
39 10 3
39 11 41
39 12 38
39 13 34
39 14 13
39 15 64
39 16 27
39 17 30
39 18 49
39 19 29
39 20 51
39 21 59
39 22 46
39 23 51
39 24 22
39 25 19
39 26 56
39 27 18
39 28 46
39 29 41
39 30 59
39 31 8
39 32 18
39 33 58
39 34 28
39 35 58
39 36 46
39 37 64
39 38 10
40 0 53
40 1 45
40 2 16
40 3 12
40 4 35
40 5 40
40 6 30
40 7 5
40 8 52
40 9 10
40 10 2
40 11 41
40 12 25
40 13 8
40 14 9
40 15 15
40 16 64
40 17 57
40 18 40
40 19 46
40 20 54
40 21 19
40 22 45
40 23 22
40 24 31
40 25 53
40 26 42
40 27 22
40 28 61
40 29 39
40 30 20
40 31 51
40 32 5
40 33 21
40 34 49
40 35 25
40 36 53
40 37 11
40 38 53
40 39 50
41 0 60
41 1 27
41 2 61
41 3 50
41 4 6
41 5 25
41 6 59
41 7 48
41 8 42
41 9 41
41 10 8
41 11 51
41 12 18
41 13 51
41 14 43
41 15 31
41 16 29
41 17 26
41 18 18
41 19 35
41 20 24
41 21 33
41 22 60
41 23 27
41 24 54
41 25 8
41 26 49
41 27 52
41 28 13
41 29 39
41 30 16
41 31 42
41 32 18
41 33 41
41 34 19
41 35 54
41 36 5
41 37 19
41 38 26
41 39 9
41 40 28
42 0 35
42 1 1
42 2 39
42 3 12
42 4 64
42 5 47
42 6 46
42 7 21
42 8 51
42 9 17
42 10 3
42 11 17
42 12 5
42 13 63
42 14 8
42 15 10
42 16 10
42 17 31
42 18 47
42 19 3
42 20 42
42 21 49
42 22 59
42 23 3
42 24 64
42 25 44
42 26 31
42 27 63
42 28 3
42 29 57
42 30 34
42 31 18
42 32 60
42 33 16
42 34 34
42 35 46
42 36 11
42 37 61
42 38 63
42 39 43
42 40 46
42 41 8
43 0 31
43 1 53
43 2 39
43 3 3
43 4 57
43 5 23
43 6 7
43 7 24
43 8 57
43 9 22
43 10 51
43 11 42
43 12 8
43 13 41
43 14 58
43 15 18
43 16 44
43 17 37
43 18 44
43 19 35
43 20 43
43 21 22
43 22 59
43 23 36
43 24 7
43 25 41
43 26 37
43 27 2
43 28 17
43 29 15
43 30 21
43 31 21
43 32 36
43 33 19
43 34 32
43 35 12
43 36 9
43 37 55
43 38 41
43 39 7
43 40 1
43 41 36
43 42 42
44 0 20
44 1 35
44 2 36
44 3 19
44 4 35
44 5 15
44 6 35
44 7 32
44 8 30
44 9 29
44 10 53
44 11 52
44 12 14
44 13 33
44 14 9
44 15 54
44 16 19
44 17 63
44 18 49
44 19 32
44 20 9
44 21 30
44 22 55
44 23 37
44 24 48
44 25 2
44 26 10
44 27 51
44 28 24
44 29 7
44 30 38
44 31 29
44 32 13
44 33 36
44 34 24
44 35 10
44 36 20
44 37 2
44 38 32
44 39 31
44 40 35
44 41 11
44 42 60
44 43 33
45 0 5
45 1 61
45 2 48
45 3 23
45 4 38
45 5 23
45 6 4
45 7 23
45 8 40
45 9 15
45 10 32
45 11 35
45 12 22
45 13 57
45 14 43
45 15 28
45 16 54
45 17 58
45 18 41
45 19 23
45 20 48
45 21 5
45 22 34
45 23 52
45 24 36
45 25 41
45 26 53
45 27 42
45 28 22
45 29 3
45 30 52
45 31 58
45 32 25
45 33 4
45 34 20
45 35 44
45 36 10
45 37 53
45 38 47
45 39 40
45 40 29
45 41 13
45 42 62
45 43 26
45 44 46
46 0 42
46 1 43
46 2 38
46 3 7
46 4 19
46 5 6
46 6 59
46 7 17
46 8 63
46 9 20
46 10 30
46 11 27
46 12 34
46 13 38
46 14 36
46 15 63
46 16 37
46 17 23
46 18 19
46 19 48
46 20 20
46 21 52
46 22 62
46 23 36
46 24 33
46 25 14
46 26 64
46 27 57
46 28 27
46 29 41
46 30 51
46 31 43
46 32 16
46 33 13
46 34 59
46 35 31
46 36 45
46 37 33
46 38 31
46 39 52
46 40 28
46 41 48
46 42 30
46 43 1
46 44 41
46 45 32
47 0 39
47 1 10
47 2 60
47 3 15
47 4 51
47 5 63
47 6 27
47 7 19
47 8 23
47 9 40
47 10 35
47 11 41
47 12 40
47 13 42
47 14 63
47 15 31
47 16 33
47 17 60
47 18 62
47 19 64
47 20 7
47 21 1
47 22 30
47 23 29
47 24 38
47 25 10
47 26 25
47 27 35
47 28 53
47 29 24
47 30 40
47 31 45
47 32 33
47 33 59
47 34 27
47 35 43
47 36 48
47 37 4
47 38 49
47 39 53
47 40 23
47 41 16
47 42 34
47 43 45
47 44 29
47 45 53
47 46 35
48 0 57
48 1 50
48 2 9
48 3 59
48 4 20
48 5 16
48 6 22
48 7 21
48 8 28
48 9 23
48 10 39
48 11 61
48 12 58
48 13 35
48 14 23
48 15 27
48 16 52
48 17 43
48 18 41
48 19 52
48 20 30
48 21 7
48 22 1
48 23 48
48 24 21
48 25 22
48 26 27
48 27 58
48 28 40
48 29 42
48 30 52
48 31 39
48 32 40
48 33 51
48 34 41
48 35 29
48 36 60
48 37 17
48 38 40
48 39 49
48 40 50
48 41 60
48 42 2
48 43 50
48 44 32
48 45 4
48 46 38
48 47 33
49 0 48
49 1 38
49 2 59
49 3 54
49 4 55
49 5 56
49 6 54
49 7 18
49 8 36
49 9 52
49 10 4
49 11 26
49 12 1
49 13 4
49 14 8
49 15 4
49 16 48
49 17 63
49 18 31
49 19 32
49 20 64
49 21 20
49 22 26
49 23 28
49 24 39
49 25 56
49 26 41
49 27 32
49 28 25
49 29 43
49 30 19
49 31 31
49 32 43
49 33 20
49 34 31
49 35 34
49 36 24
49 37 30
49 38 25
49 39 7
49 40 60
49 41 60
49 42 61
49 43 26
49 44 53
49 45 33
49 46 27
49 47 28
49 48 30
50 0 35
50 1 20
50 2 1
50 3 61
50 4 13
50 5 36
50 6 34
50 7 43
50 8 33
50 9 63
50 10 7
50 11 57
50 12 58
50 13 16
50 14 15
50 15 53
50 16 49
50 17 6
50 18 39
50 19 53
50 20 11
50 21 17
50 22 17
50 23 33
50 24 57
50 25 39
50 26 24
50 27 14
50 28 20
50 29 23
50 30 28
50 31 7
50 32 51
50 33 15
50 34 24
50 35 28
50 36 50
50 37 12
50 38 18
50 39 18
50 40 29
50 41 52
50 42 24
50 43 30
50 44 59
50 45 45
50 46 38
50 47 37
50 48 14
50 49 28
51 0 61
51 1 11
51 2 32
51 3 49
51 4 30
51 5 54
51 6 17
51 7 15
51 8 17
51 9 31
51 10 38
51 11 31
51 12 20
51 13 61
51 14 36
51 15 49
51 16 54
51 17 12
51 18 22
51 19 33
51 20 16
51 21 13
51 22 58
51 23 63
51 24 18
51 25 46
51 26 61
51 27 14
51 28 36
51 29 9
51 30 44
51 31 4
51 32 1
51 33 27
51 34 41
51 35 51
51 36 33
51 37 59
51 38 33
51 39 39
51 40 57
51 41 60
51 42 50
51 43 8
51 44 14
51 45 13
51 46 38
51 47 44
51 48 54
51 49 62
51 50 3
52 0 51
52 1 52
52 2 40
52 3 8
52 4 26
52 5 23
52 6 11
52 7 44
52 8 43
52 9 53
52 10 41
52 11 18
52 12 17
52 13 9
52 14 36
52 15 53
52 16 46
52 17 46
52 18 2
52 19 18
52 20 61
52 21 26
52 22 55
52 23 61
52 24 25
52 25 43
52 26 55
52 27 1
52 28 64
52 29 33
52 30 29
52 31 21
52 32 16
52 33 36
52 34 62
52 35 51
52 36 57
52 37 13
52 38 20
52 39 44
52 40 4
52 41 5
52 42 61
52 43 45
52 44 63
52 45 2
52 46 28
52 47 50
52 48 19
52 49 17
52 50 48
52 51 57
53 0 59
53 1 40
53 2 23
53 3 15
53 4 62
53 5 60
53 6 41
53 7 43
53 8 55
53 9 1
53 10 9
53 11 18
53 12 59
53 13 41
53 14 55
53 15 30
53 16 8
53 17 47
53 18 23
53 19 50
53 20 33
53 21 33
53 22 38
53 23 36
53 24 48
53 25 11
53 26 42
53 27 6
53 28 38
53 29 43
53 30 48
53 31 46
53 32 28
53 33 32
53 34 19
53 35 17
53 36 4
53 37 29
53 38 56
53 39 36
53 40 24
53 41 61
53 42 16
53 43 6
53 44 40
53 45 17
53 46 1
53 47 60
53 48 31
53 49 48
53 50 18
53 51 31
53 52 5
54 0 10
54 1 44
54 2 54
54 3 33
54 4 11
54 5 34
54 6 40
54 7 57
54 8 9
54 9 47
54 10 37
54 11 38
54 12 30
54 13 13
54 14 34
54 15 23
54 16 14
54 17 26
54 18 17
54 19 39
54 20 54
54 21 42
54 22 27
54 23 53
54 24 1
54 25 9
54 26 41
54 27 3
54 28 14
54 29 42
54 30 25
54 31 47
54 32 20
54 33 51
54 34 20
54 35 43
54 36 17
54 37 62
54 38 60
54 39 38
54 40 1
54 41 27
54 42 10
54 43 41
54 44 59
54 45 10
54 46 53
54 47 54
54 48 11
54 49 33
54 50 19
54 51 29
54 52 27
54 53 48
55 0 52
55 1 38
55 2 21
55 3 57
55 4 7
55 5 27
55 6 50
55 7 36
55 8 37
55 9 15
55 10 60
55 11 56
55 12 54
55 13 54
55 14 38
55 15 22
55 16 43
55 17 7
55 18 10
55 19 21
55 20 27
55 21 50
55 22 35
55 23 47
55 24 42
55 25 48
55 26 43
55 27 53
55 28 36
55 29 34
55 30 9
55 31 26
55 32 8
55 33 26
55 34 55
55 35 43
55 36 21
55 37 43
55 38 3
55 39 33
55 40 3
55 41 4
55 42 7
55 43 12
55 44 62
55 45 56
55 46 46
55 47 30
55 48 64
55 49 50
55 50 24
55 51 50
55 52 63
55 53 11
55 54 51
56 0 56
56 1 38
56 2 33
56 3 53
56 4 12
56 5 48
56 6 6
56 7 34
56 8 52
56 9 58
56 10 10
56 11 58
56 12 41
56 13 13
56 14 16
56 15 6
56 16 23
56 17 6
56 18 16
56 19 24
56 20 11
56 21 9
56 22 43
56 23 64
56 24 28
56 25 61
56 26 49
56 27 51
56 28 46
56 29 37
56 30 50
56 31 14
56 32 51
56 33 47
56 34 36
56 35 61
56 36 39
56 37 45
56 38 63
56 39 38
56 40 29
56 41 52
56 42 4
56 43 49
56 44 37
56 45 55
56 46 55
56 47 55
56 48 12
56 49 46
56 50 27
56 51 10
56 52 23
56 53 13
56 54 12
56 55 61
57 0 36
57 1 59
57 2 63
57 3 19
57 4 47
57 5 26
57 6 19
57 7 60
57 8 59
57 9 7
57 10 22
57 11 62
57 12 9
57 13 56
57 14 28
57 15 15
57 16 60
57 17 3
57 18 29
57 19 16
57 20 51
57 21 10
57 22 27
57 23 32
57 24 13
57 25 2
57 26 34
57 27 11
57 28 20
57 29 53
57 30 15
57 31 47
57 32 17
57 33 64
57 34 1
57 35 58
57 36 55
57 37 36
57 38 4
57 39 2
57 40 49
57 41 2
57 42 10
57 43 50
57 44 52
57 45 47
57 46 7
57 47 44
57 48 1
57 49 44
57 50 53
57 51 63
57 52 3
57 53 3
57 54 57
57 55 54
57 56 46
58 0 44
58 1 60
58 2 58
58 3 31
58 4 54
58 5 31
58 6 30
58 7 2
58 8 24
58 9 60
58 10 13
58 11 32
58 12 29
58 13 60
58 14 59
58 15 54
58 16 36
58 17 4
58 18 46
58 19 32
58 20 7
58 21 56
58 22 55
58 23 23
58 24 12
58 25 42
58 26 54
58 27 25
58 28 63
58 29 18
58 30 50
58 31 60
58 32 18
58 33 12
58 34 56
58 35 11
58 36 46
58 37 18
58 38 46
58 39 16
58 40 53
58 41 22
58 42 48
58 43 25
58 44 11
58 45 14
58 46 51
58 47 37
58 48 59
58 49 54
58 50 58
58 51 56
58 52 44
58 53 52
58 54 51
58 55 34
58 56 44
58 57 21
